32      4       
21      13      19      22      
0       0       0       0       0       6       2       3       4       5       6       7       
8       2       0       10      0       3       8       10      11      
10      4       5       6       8       2       9       19      
10      0       0       3       7       2       21      23      
6       9       2       9       0       2       18      22      
6       0       3       0       0       1       17      
3       2       0       0       0       1       15      
3       0       0       5       1       3       12      13      14      
2       3       0       6       0       1       29      
5       3       0       1       4       2       16      30      
3       0       5       0       0       2       16      27      
8       0       7       1       0       1       18      
3       0       0       0       6       2       20      24      
7       0       0       0       7       1       20      
8       6       7       0       5       1       26      
10      7       8       1       8       1       23      
5       10      0       0       0       1       25      
9       9       2       0       2       1       24      
9       3       2       0       7       1       20      
2       8       4       5       0       1       26      
8       0       0       8       0       1       29      
5       7       0       0       0       1       30      
6       3       0       3       7       2       26      31      
6       0       8       0       0       2       28      30      
5       7       0       0       5       1       28      
1       0       3       0       4       1       29      
4       9       0       0       0       1       28      
5       7       0       0       0       1       31      
4       0       0       0       3       1       32      
9       0       0       10      2       1       32      
6       1       8       6       10      1       32      
0       0       0       0       0       0       